qbf_easy_train/easy_1435_SAT.qdimacs
p cnf 29 76
a 9 20 21 0
e 1 2 3 4 5 6 7 8 10 11 12 13 14 15 16 17 18 19 22 23 24 25 26 27 28 29 0
3 -2 0
3 1 0
2 -1 -3 0
1 3 -4 0
-1 -3 -4 0
1 -3 4 0
-1 3 4 0
-5 6 -7 0
5 -6 -7 0
-5 -6 7 0
5 6 7 0
-8 4 0
-8 -7 0
-4 7 8 0
9 3 0
9 -5 0
-3 5 -9 0
11 -10 0
11 -2 0
10 2 -11 0
-13 11 0
-13 -12 0
-11 12 13 0
13 -14 0
-13 -14 0
15 14 0
15 -1 0
-14 1 -15 0
-16 -9 0
-16 -15 0
9 15 16 0
17 -1 0
17 -14 0
1 14 -17 0
-16 -17 -18 0
16 17 -18 0
-16 17 18 0
16 -17 18 0
-19 -8 0
-19 18 0
8 -18 19 0
14 10 -21 0
-14 -10 -21 0
14 -10 21 0
-14 10 21 0
-23 21 0
-23 -22 0
-21 22 23 0
24 20 0
24 23 0
-20 -23 -24 0
-25 15 0
-25 6 0
-15 -6 25 0
2 -5 -26 0
-2 5 -26 0
2 5 26 0
-2 -5 26 0
-27 -25 0
-27 26 0
25 -26 27 0
28 -24 0
28 -27 0
24 27 -28 0
-19 28 -29 0
19 -28 -29 0
-19 -28 29 0
19 28 29 0
7 28 -12 -26 0
7 26 -27 4 0
16 6 27 0
16 -10 -22 -14 -1 -8 28 -3 0
14 12 -19 23 4 -15 -25 0
17 -3 28 0
13 19 -4 12 22 0
29 0
