sat_easy_train/easy_1435_SAT.dimacs
p cnf 149 520
1 -2 -3 0
-1 2 -3 0
1 2 3 0
-1 -2 3 0
-5 -6 -7 0
5 6 -7 0
-5 6 7 0
5 -6 7 0
8 4 0
8 -7 0
-4 7 -8 0
9 7 -10 0
-9 -7 -10 0
9 -7 10 0
-9 7 10 0
12 -6 0
12 6 0
-13 11 0
-13 -12 0
-11 12 13 0
-14 -10 0
-14 -13 0
10 13 14 0
15 -8 0
15 14 0
8 -14 -15 0
-11 -1 -16 0
11 1 -16 0
-11 1 16 0
11 -1 16 0
-18 -16 0
-18 -17 0
16 17 18 0
-20 -19 0
-20 2 0
19 -2 20 0
-21 18 0
-21 -20 0
-18 20 21 0
-22 -15 0
-22 21 0
15 -21 22 0
-21 -9 -23 0
21 9 -23 0
-21 9 23 0
21 -9 23 0
24 -5 -25 0
-24 5 -25 0
24 5 25 0
-24 -5 25 0
9 -25 -26 0
-9 25 -26 0
9 25 26 0
-9 -25 26 0
-27 26 0
-27 -20 0
-26 20 27 0
29 -27 0
29 -28 0
27 28 -29 0
-23 29 -30 0
23 -29 -30 0
-23 -29 30 0
23 29 30 0
-31 22 0
-31 30 0
-22 -30 31 0
-3 -31 -32 0
3 31 -32 0
-3 31 32 0
3 -31 32 0
33 16 -34 0
-33 -16 -34 0
33 -16 34 0
-33 16 34 0
17 35 -36 0
-17 -35 -36 0
17 -35 36 0
-17 35 36 0
-37 -36 0
-37 7 0
36 -7 37 0
-38 -25 0
-38 -37 0
25 37 38 0
39 34 0
39 38 0
-34 -38 -39 0
40 19 0
40 -38 0
-19 38 -40 0
-41 39 0
-41 40 0
-39 -40 41 0
-32 41 -42 0
32 -41 -42 0
-32 -41 42 0
32 41 42 0
-43 12 0
-43 -19 0
-12 19 43 0
-45 11 0
-45 44 0
-11 -44 45 0
46 11 0
46 2 0
-11 -2 -46 0
47 9 0
47 46 0
-9 -46 -47 0
45 -47 -48 0
-45 47 -48 0
45 47 48 0
-45 -47 48 0
49 43 0
49 48 0
-43 -48 -49 0
-33 -24 -50 0
33 24 -50 0
-33 24 50 0
33 -24 50 0
50 -12 -51 0
-50 12 -51 0
50 12 51 0
-50 -12 51 0
-52 12 0
-52 51 0
-12 -51 52 0
-16 -15 -53 0
16 15 -53 0
-16 15 53 0
16 -15 53 0
-52 -53 -54 0
52 53 -54 0
-52 53 54 0
52 -53 54 0
-55 1 0
-55 -7 0
-1 7 55 0
-55 -17 -56 0
55 17 -56 0
-55 17 56 0
55 -17 56 0
54 -56 -57 0
-54 56 -57 0
54 56 57 0
-54 -56 57 0
-14 -38 -58 0
14 38 -58 0
-14 38 58 0
14 -38 58 0
-59 -58 0
-59 55 0
58 -55 59 0
60 57 0
60 -59 0
-57 59 -60 0
-61 -12 0
-61 8 0
12 -8 61 0
62 -35 0
62 61 0
35 -61 -62 0
-46 -28 -63 0
46 28 -63 0
-46 28 63 0
46 -28 63 0
-63 50 -64 0
63 -50 -64 0
-63 -50 64 0
63 50 64 0
65 -33 0
65 8 0
33 -8 -65 0
66 65 0
66 -27 0
-65 27 -66 0
-63 66 -67 0
63 -66 -67 0
-63 -66 67 0
63 66 67 0
68 -64 0
68 -67 0
64 67 -68 0
-69 -62 0
-69 68 0
62 -68 69 0
70 -60 0
70 -69 0
60 69 -70 0
-71 -49 0
-71 70 0
49 -70 71 0
-72 42 0
-72 71 0
-42 -71 72 0
73 -38 0
73 -27 0
38 27 -73 0
74 6 0
74 -66 0
-6 66 -74 0
-75 58 0
-75 74 0
-58 -74 75 0
-76 73 0
-76 75 0
-73 -75 76 0
-77 20 0
-77 -51 0
-20 51 77 0
76 -77 -78 0
-76 77 -78 0
76 77 78 0
-76 -77 78 0
-9 -55 -79 0
9 55 -79 0
-9 55 79 0
9 -55 79 0
79 61 -80 0
-79 -61 -80 0
79 -61 80 0
-79 61 80 0
-78 80 -81 0
78 -80 -81 0
-78 -80 81 0
78 80 81 0
82 -34 0
82 -10 0
34 10 -82 0
83 -82 0
83 63 0
82 -63 -83 0
16 -38 -84 0
-16 38 -84 0
16 38 84 0
-16 -38 84 0
85 15 0
85 -44 0
-15 44 -85 0
4 -11 -86 0
-4 11 -86 0
4 11 86 0
-4 -11 86 0
85 -86 -87 0
-85 86 -87 0
85 86 87 0
-85 -86 87 0
88 -84 0
88 87 0
84 -87 -88 0
-89 -26 0
-89 -47 0
26 47 89 0
88 -89 -90 0
-88 89 -90 0
88 89 90 0
-88 -89 90 0
91 -83 0
91 90 0
83 -90 -91 0
81 91 -92 0
-81 -91 -92 0
81 -91 92 0
-81 91 92 0
93 86 0
93 33 0
-86 -33 -93 0
93 66 -94 0
-93 -66 -94 0
93 -66 94 0
-93 66 94 0
95 -35 0
95 -28 0
35 28 -95 0
96 -85 0
96 95 0
85 -95 -96 0
97 94 0
97 -96 0
-94 96 -97 0
-18 33 -98 0
18 -33 -98 0
-18 -33 98 0
18 33 98 0
-14 -20 -99 0
14 20 -99 0
-14 20 99 0
14 -20 99 0
-98 99 -100 0
98 -99 -100 0
-98 -99 100 0
98 99 100 0
101 26 0
101 -33 0
-26 33 -101 0
101 8 -102 0
-101 -8 -102 0
101 -8 102 0
-101 8 102 0
103 102 0
103 1 0
-102 -1 -103 0
104 -12 0
104 101 0
12 -101 -104 0
103 -104 -105 0
-103 104 -105 0
103 104 105 0
-103 -104 105 0
106 -100 0
106 -105 0
100 105 -106 0
107 -97 0
107 -106 0
97 106 -107 0
-108 92 0
-108 107 0
-92 -107 108 0
-109 -72 0
-109 -108 0
72 108 109 0
20 -19 -110 0
-20 19 -110 0
20 19 110 0
-20 -19 110 0
110 -82 -111 0
-110 82 -111 0
110 82 111 0
-110 -82 111 0
19 112 -113 0
-19 -112 -113 0
19 -112 113 0
-19 112 113 0
15 74 -114 0
-15 -74 -114 0
15 -74 114 0
-15 74 114 0
115 113 0
115 -114 0
-113 114 -115 0
116 -111 0
116 -115 0
111 115 -116 0
117 15 0
117 -75 0
-15 75 -117 0
-116 -117 -118 0
116 117 -118 0
-116 117 118 0
116 -117 118 0
-119 9 0
-119 102 0
-9 -102 119 0
-119 4 -120 0
119 -4 -120 0
-119 -4 120 0
119 4 120 0
-121 -36 0
-121 120 0
36 -120 121 0
-122 -118 0
-122 121 0
118 -121 122 0
123 5 0
123 19 0
-5 -19 -123 0
124 82 0
124 123 0
-82 -123 -124 0
-125 98 0
-125 27 0
-98 -27 125 0
125 21 -126 0
-125 -21 -126 0
125 -21 126 0
-125 21 126 0
86 -63 -127 0
-86 63 -127 0
86 63 127 0
-86 -63 127 0
-128 127 0
-128 33 0
-127 -33 128 0
-129 -128 0
-129 113 0
128 -113 129 0
-130 -126 0
-130 129 0
126 -129 130 0
-131 -124 0
-131 130 0
124 -130 131 0
47 34 -132 0
-47 -34 -132 0
47 -34 132 0
-47 34 132 0
-50 -132 -133 0
50 132 -133 0
-50 132 133 0
50 -132 133 0
-15 66 -134 0
15 -66 -134 0
-15 -66 134 0
15 66 134 0
133 134 -135 0
-133 -134 -135 0
133 -134 135 0
-133 134 135 0
136 131 0
136 -135 0
-131 135 -136 0
137 -122 0
137 136 0
122 -136 -137 0
-55 -132 -138 0
55 132 -138 0
-55 132 138 0
55 -132 138 0
-139 138 0
-139 -82 0
-138 82 139 0
-7 -16 -140 0
7 16 -140 0
-7 16 140 0
7 -16 140 0
141 -140 0
141 37 0
140 -37 -141 0
142 -141 0
142 95 0
141 -95 -142 0
143 139 0
143 142 0
-139 -142 -143 0
-145 -15 0
-145 -82 0
15 82 145 0
146 -144 0
146 -145 0
144 145 -146 0
143 146 -147 0
-143 -146 -147 0
143 -146 147 0
-143 146 147 0
148 -137 0
148 147 0
137 -147 -148 0
149 -109 0
149 -148 0
109 148 -149 0
31 -91 51 102 0
108 100 -1 17 142 0
-28 24 -32 85 0
101 18 0
79 -104 74 -26 53 0
-36 86 -68 130 53 0
-117 96 89 94 1 0
120 67 -149 -146 -29 0
93 43 140 0
144 91 149 28 0
-117 40 -16 116 0
-142 -84 -39 -14 0
97 10 -138 -52 -36 11 0
-36 128 58 -69 -79 0
-72 98 -122 94 50 -31 0
-15 73 129 -8 -59 145 0
-58 27 0
105 110 -58 126 90 69 0
85 138 49 0
-136 -38 -127 -125 123 0
23 89 0
96 -9 118 136 -120 0
90 -16 -125 45 -66 0
11 -115 59 131 -83 0
122 66 -53 0
-97 133 78 99 -120 75 0
124 -132 -97 0
95 138 -12 33 46 0
141 -78 0
73 59 -108 112 134 -55 0
-116 -72 141 7 21 0
-77 103 -68 -22 -133 0
145 117 0
-65 36 79 98 -52 31 0
62 -126 77 0
-95 -47 -66 -124 -52 0
-100 -123 44 140 0
25 90 -143 7 0
-37 -132 -65 -90 54 148 0
-69 -92 -83 131 0
23 21 -98 -67 122 148 0
2 -59 0
-27 80 0
-59 98 18 -147 -124 0
-26 -136 97 22 -27 39 0
-94 16 29 4 0
23 -131 -122 0
88 98 118 0
107 -96 -128 0
-77 80 110 -29 117 -136 0
13 134 -116 0
47 -112 15 0
73 -65 0
71 57 0
46 86 0
-20 -58 -37 95 65 0
22 -138 -112 113 58 -68 0
-12 -95 142 -146 121 0
45 -36 27 -120 -4 57 0
44 127 0
36 -130 48 116 -127 0
33 135 122 88 0
-43 -1 0
64 -57 0
32 64 13 0
8 24 91 -16 55 0
91 11 0
137 -29 70 108 0
149 0
